52
120
93	2
92	1
90	1
88	3
86	2
85	1
84	2
82	6
80	2
77	1
75	1
72	2
71	1
70	3
68	2
66	2
64	2
61	5
58	1
56	3
54	1
53	2
52	1
51	3
49	2
48	3
47	1
46	1
44	2
43	1
42	2
41	2
40	1
39	1
38	1
37	2
36	2
35	2
34	3
33	2
31	1
30	1
29	1
28	1
26	4
23	1
19	1
18	3
16	2
15	4
13	2
12	1
